nbGenes = 10;
preference = [[0 85 86 30 49 73 77 79 63 52 ]
[15 0 96 97 91 14 45 38 38 20 ]
[14 4 0 56 46 33 54 67 43 89 ]
[70 3 44 0 80 19 96 70 14 10 ]
[51 9 54 20 0 37 19 20 45 15 ]
[27 86 67 81 63 0 2 61 8 85 ]
[23 55 46 4 81 98 0 8 30 99 ]
[21 62 33 30 80 39 92 0 39 35 ]
[37 62 57 86 55 92 70 61 0 39 ]
[48 80 11 90 85 15 1 65 61 0 ]
];
